CMD:
./solvers/bin/cadical --plain --no-reduce -t 1600 ./data/cnfs//intel007/intel007.58.cnf

c --- [ banner ] -------------------------------------------------------------
c 
c CaDiCaL SAT Solver
c Copyright (c) 2016-2024
c A. Biere, M. Fleury, N. Froleyks, K. Fazekas, F. Pollitt, T. Faller
c JKU Linz, University of Freiburg, TU Wien
c 
c Version 2.1.3 5296d3d2a9bf48c154ab2acb5e44625776d821bf
c g++ (Gentoo 12.3.1_p20230526 p2) 12.3.1 20230526 -Wall -Wextra -O3 -DNDEBUG
c Sat Aug 9 07:26:21 PDT 2025 Linux cedar2.int.cedar.computecanada.ca 5.14.0-362.24.2.el9_3.x86_64 x86_64
c 
c --- [ limit ] --------------------------------------------------------------
c 
c setting time limit to 1600 seconds real time (due to '-t 1600')
c 
c --- [ parsing input ] ------------------------------------------------------
c 
c reading DIMACS file from './data/cnfs//intel007/intel007.58.cnf'
c opening file to read './data/cnfs//intel007/intel007.58.cnf'
c found 'p cnf 750071 2016983' header
c parsed 2016983 clauses in 0.45 seconds process time
c 
c --- [ options ] ------------------------------------------------------------
c 
c   --compact=false                (different from default 'true')
c   --decompose=false              (different from default 'true')
c   --deduplicate=false            (different from default 'true')
c   --elim=false                   (different from default 'true')
c   --probe=false                  (different from default 'true')
c   --reduce=false                 (different from default 'true')
c   --subsume=false                (different from default 'true')
c   --ternary=false                (different from default 'true')
c   --transred=false               (different from default 'true')
c   --vivify=false                 (different from default 'true')
c 
c --- [ solving ] ------------------------------------------------------------
c 
c time measured in process time since initialization
c 
c  seconds   reductions  redundant   irredundant
c          MB    restarts       trail        variables
c           level   conflicts       glue           remaining
c 
c *  0.45 329  0 0   0    0    0  0% 0 2011118 547069 73%
c {  0.46 329  0 0   0    0    0  0% 0 2011118 547069 73%
c i  0.56 332 799 0   2   43   42 34% 2 2011118 547068 73%
c i  1.13 334 274 0  40  453  387 35% 3 2011118 546849 73%
c }  1.58 334 182 0  68 1009  888 34% 3 2011118 545843 73%
c [  1.58 334  0 0  68 1009  888  0% 0 2011118 545843 73%
c O  1.59 334 713 0  68 1010  889 28% 2 2011118 545843 73%
c i  1.86 339 38894 0  69 2043 1850 95% 46 2011118 545092 73%
c ]  5.64 339 22046 0  69 3012 2657 70% 32 2011118 545092 73%
c {  5.64 339 182 0  69 3012 2657 34% 3 2011118 545092 73%
c F  5.64 339 182 0  69 3013 2658 34% 3 2011118 545092 73%
c #  9.52 340 108 0 327 6014 5246 34% 4 2011118 545092 73%
c } 10.69 340 98 0 462 7012 6041 34% 5 2011118 545092 73%
c [ 10.69 340 22046 0 462 7012 6041 70% 32 2011118 545092 73%
c I 16.25 341 8429 0 464 10016 8804 51% 20 2011118 545092 73%
c ] 28.83 343 4041 0 467 15014 13032 44% 19 2011118 545092 73%
c { 28.83 343 98 0 467 15014 13032 34% 5 2011118 545092 73%
c B 28.86 343 98 0 468 15019 13037 34% 5 2011118 545092 73%
c i 28.88 343 96 0 468 15136 13124 34% 5 2011118 544415 73%
c i 31.25 343 95 0 563 16079 13890 34% 6 2011118 543146 72%
c 
c  seconds   reductions    redundant   irredundant
c          MB    restarts         trail        variables
c           level    conflicts        glue           remaining
c 
c i 31.32 343 99 0 563 16292 14033 34% 6 2011118 542471 72%
c i 34.30 343 90 0 729 17350 14856 34% 7 2011118 541796 72%
c i 34.30 343 90 0 729 17351 14856 34% 7 2011118 538150 72%
c W 45.10 340 72 0 990 21020 13786 36% 8 1415248 538150 72%
c i 46.37 340 70 0 990 21423 14032 36% 8 1415248 538082 72%
c i 46.69 340 69 0 1014 21587 14156 36% 8 1415248 535033 71%
c i 46.81 340 68 0 1014 21756 14287 36% 8 1415248 533772 71%
c i 48.48 340 67 0 1074 22605 14989 36% 8 1415248 531191 71%
c i 54.86 340 67 0 1242 25503 17416 37% 7 1415248 529930 71%
c i 57.83 340 64 0 1296 26680 18397 37% 7 1415248 511140 68%
c i 57.89 340 64 0 1296 26704 18418 37% 7 1415248 508921 68%
c F 60.55 340 60 0 1324 28024 19515 37% 7 1415248 508921 68%
c i 61.13 340 60 0 1324 28182 19629 38% 7 1415248 508246 68%
c i 61.50 340 59 0 1324 28372 19790 38% 7 1415248 504518 67%
c i 61.51 340 59 0 1324 28378 19792 38% 7 1415248 502752 67%
c i 61.52 340 59 0 1324 28379 19792 38% 7 1415248 500698 67%
c i 61.70 340 59 0 1327 28479 19853 38% 7 1415248 498976 67%
c i 61.89 340 59 0 1327 28539 19896 38% 7 1415248 498307 66%
c } 61.94 340 59 0 1327 28556 19901 38% 7 1415248 468224 62%
c 0 61.94 340 59 0 1327 28556 19901 38% 7 1415248 468224 62%
c 
c --- [ result ] -------------------------------------------------------------
c 
s UNSATISFIABLE
c 
c --- [ run-time profiling ] -------------------------------------------------
c 
c process time taken by individual solving procedures
c (percentage relative to process time for solving)
c 
c        61.49  100.00% search
c        38.54   62.67% unstable
c        22.20   36.10% stable
c         0.74    1.21% walk
c         0.45    0.73% parse
c         0.01    0.01% lucky
c         0.00    0.00% simplify
c   =================================
c        61.49   99.27% solve
c 
c last line shows process time for solving
c (percentage relative to total process time)
c 
c --- [ statistics ] ---------------------------------------------------------
c 
c chronological:              9670        33.86 %  of conflicts
c conflicts:                 28556       464.42    per second
c decisions:                204507      3325.96    per second
c fixed:                    281847        37.58 %  of all variables
c learned:                   27081        94.83 %  per conflict
c learned_lits:            3075116       100.00 %  learned literals
c minimized:                     0         0.00 %  learned literals
c shrunken:                1751996        56.97 %  learned literals
c minishrunken:             454663        14.79 %  learned literals
c otfs:                         65         0.23 %  of conflict
c propagations:          470417767         7.65 M  per second
c rephased:                      7      4079.43    interval
c restarts:                   1327        21.52    interval
c stabilizing:                   2        35.03 %  of conflicts
c subsumed:                   3261         0.16 %  of all clauses
c strengthened:                 60         0.00 %  of all clauses
c walked:                        1     28556.00    interval
c 
c seconds are measured in process time for solving
c 
c --- [ resources ] ----------------------------------------------------------
c 
c total process time since initialization:        61.94    seconds
c total real time since initialization:           62.28    seconds
c maximum resident set size of process:          352.86    MB
c 
c --- [ shutting down ] ------------------------------------------------------
c 
c exit 20
